p edge 34 94
e 1 2
e 1 3
e 1 4
e 1 5
e 1 6
e 1 14
e 1 16
e 1 17
e 1 18
e 1 20
e 1 21
e 1 22
e 1 23
e 1 24
e 1 27
e 1 30
e 1 31
e 1 32
e 1 33
e 1 34
e 1 8
e 1 7
e 1 13
e 1 12
e 1 11
e 1 10
e 1 19
e 1 29
e 1 28
e 1 26
e 1 25
e 1 15
e 1 9
e 2 3
e 2 4
e 2 5
e 2 6
e 2 14
e 2 16
e 2 17
e 2 18
e 2 20
e 2 21
e 2 22
e 2 23
e 2 24
e 2 27
e 2 30
e 2 31
e 2 32
e 2 33
e 2 34
e 2 11
e 2 7
e 3 4
e 3 5
e 3 6
e 3 14
e 3 16
e 3 17
e 3 18
e 3 20
e 3 21
e 3 22
e 3 23
e 3 24
e 3 27
e 3 30
e 3 31
e 3 32
e 3 33
e 3 34
e 3 11
e 3 7
e 4 5
e 7 8
e 7 13
e 7 12
e 7 11
e 7 10
e 7 19
e 7 29
e 7 28
e 7 26
e 7 25
e 7 15
e 7 9
e 11 13
e 11 12
e 11 19
e 11 15
e 25 26
e 30 32
e 30 31
